<?xml version="1.0" encoding="UTF-8"?><osil xmlns="os.optimizationservices.org"   xmlns:xsi="http://www.w3.org/2001/XMLSchema-instance" xsi:schemaLocation="os.optimizationservices.org http://www.optimizationservices.org/schemas/2.0/OSiL.xsd" ><instanceHeader><name>q_40_0_75_4</name></instanceHeader><instanceData><variables numberOfVariables="40"><var name="x1" ub="1"/><var name="x2" ub="1"/><var name="x3" ub="1"/><var name="x4" ub="1"/><var name="x5" ub="1"/><var name="x6" ub="1"/><var name="x7" ub="1"/><var name="x8" ub="1"/><var name="x9" ub="1"/><var name="x10" ub="1"/><var name="x11" ub="1"/><var name="x12" ub="1"/><var name="x13" ub="1"/><var name="x14" ub="1"/><var name="x15" ub="1"/><var name="x16" ub="1"/><var name="x17" ub="1"/><var name="x18" ub="1"/><var name="x19" ub="1"/><var name="x20" ub="1"/><var name="x21" ub="1"/><var name="x22" ub="1"/><var name="x23" ub="1"/><var name="x24" ub="1"/><var name="x25" ub="1"/><var name="x26" ub="1"/><var name="x27" ub="1"/><var name="x28" ub="1"/><var name="x29" ub="1"/><var name="x30" ub="1"/><var name="x31" ub="1"/><var name="x32" ub="1"/><var name="x33" ub="1"/><var name="x34" ub="1"/><var name="x35" ub="1"/><var name="x36" ub="1"/><var name="x37" ub="1"/><var name="x38" ub="1"/><var name="x39" ub="1"/><var name="x40" ub="1"/></variables><objectives numberOfObjectives="1"><obj maxOrMin="min" name="defObj_x41" numberOfObjCoef="40"><coef idx="0">.5837</coef><coef idx="1">.9399</coef><coef idx="2">-.4155</coef><coef idx="3">-.7247</coef><coef idx="4">-.5006</coef><coef idx="5">-.3135</coef><coef idx="6">.167</coef><coef idx="7">-.1812</coef><coef idx="8">-2.47e-2</coef><coef idx="9">.5947</coef><coef idx="10">.7703</coef><coef idx="11">-.6953</coef><coef idx="12">.4099</coef><coef idx="13">-6.21e-2</coef><coef idx="14">-.1305</coef><coef idx="15">.6304</coef><coef idx="16">.8518</coef><coef idx="17">-.3648</coef><coef idx="18">-.21</coef><coef idx="19">.4215</coef><coef idx="20">.622</coef><coef idx="21">.3778</coef><coef idx="22">-.9843</coef><coef idx="23">.5504</coef><coef idx="24">.4766</coef><coef idx="25">.9459</coef><coef idx="26">.4568</coef><coef idx="27">-.7461</coef><coef idx="28">-.2938</coef><coef idx="29">-.9588</coef><coef idx="30">.1862</coef><coef idx="31">.9379</coef><coef idx="32">-.349</coef><coef idx="33">-.9438</coef><coef idx="34">.2423</coef><coef idx="35">.2075</coef><coef idx="36">.7493</coef><coef idx="37">6.01e-2</coef><coef idx="38">5.54e-2</coef><coef idx="39">-.9574</coef></obj></objectives><quadraticCoefficients  numberOfQuadraticTerms="420" ><qTerm  idx="-1"  idxOne="0"  idxTwo="0"  coef="8.59e-2"/><qTerm  idx="-1"  idxOne="0"  idxTwo="1"  coef="-.1731"/><qTerm  idx="-1"  idxOne="0"  idxTwo="2"  coef=".7563"/><qTerm  idx="-1"  idxOne="0"  idxTwo="3"  coef="-.2688"/><qTerm  idx="-1"  idxOne="0"  idxTwo="5"  coef="-.4246"/><qTerm  idx="-1"  idxOne="0"  idxTwo="8"  coef=".8386"/><qTerm  idx="-1"  idxOne="0"  idxTwo="9"  coef="-.9208"/><qTerm  idx="-1"  idxOne="0"  idxTwo="11"  coef=".5961"/><qTerm  idx="-1"  idxOne="0"  idxTwo="12"  coef="-.898"/><qTerm  idx="-1"  idxOne="0"  idxTwo="13"  coef="-.5612"/><qTerm  idx="-1"  idxOne="0"  idxTwo="14"  coef="-.9878"/><qTerm  idx="-1"  idxOne="0"  idxTwo="15"  coef=".8073"/><qTerm  idx="-1"  idxOne="0"  idxTwo="16"  coef=".3393"/><qTerm  idx="-1"  idxOne="0"  idxTwo="18"  coef="-.6622"/><qTerm  idx="-1"  idxOne="0"  idxTwo="19"  coef=".857"/><qTerm  idx="-1"  idxOne="0"  idxTwo="20"  coef=".7496"/><qTerm  idx="-1"  idxOne="0"  idxTwo="22"  coef=".4363"/><qTerm  idx="-1"  idxOne="0"  idxTwo="23"  coef="-.8202"/><qTerm  idx="-1"  idxOne="0"  idxTwo="24"  coef=".4334"/><qTerm  idx="-1"  idxOne="0"  idxTwo="26"  coef=".7426"/><qTerm  idx="-1"  idxOne="0"  idxTwo="27"  coef="-.4856"/><qTerm  idx="-1"  idxOne="0"  idxTwo="30"  coef="-.5472"/><qTerm  idx="-1"  idxOne="0"  idxTwo="33"  coef=".2729"/><qTerm  idx="-1"  idxOne="0"  idxTwo="35"  coef=".9101"/><qTerm  idx="-1"  idxOne="0"  idxTwo="36"  coef=".7992"/><qTerm  idx="-1"  idxOne="0"  idxTwo="38"  coef="-.2542"/><qTerm  idx="-1"  idxOne="0"  idxTwo="39"  coef=".2993"/><qTerm  idx="-1"  idxOne="1"  idxTwo="3"  coef=".4437"/><qTerm  idx="-1"  idxOne="1"  idxTwo="5"  coef="-.476"/><qTerm  idx="-1"  idxOne="1"  idxTwo="6"  coef=".6986"/><qTerm  idx="-1"  idxOne="1"  idxTwo="8"  coef="-.7818"/><qTerm  idx="-1"  idxOne="1"  idxTwo="9"  coef="-.7538"/><qTerm  idx="-1"  idxOne="1"  idxTwo="10"  coef="6.53e-2"/><qTerm  idx="-1"  idxOne="1"  idxTwo="11"  coef="-.3149"/><qTerm  idx="-1"  idxOne="1"  idxTwo="16"  coef="-5.71e-2"/><qTerm  idx="-1"  idxOne="1"  idxTwo="19"  coef=".8089"/><qTerm  idx="-1"  idxOne="1"  idxTwo="20"  coef="-.5403"/><qTerm  idx="-1"  idxOne="1"  idxTwo="22"  coef=".5543"/><qTerm  idx="-1"  idxOne="1"  idxTwo="30"  coef="-7.53e-2"/><qTerm  idx="-1"  idxOne="1"  idxTwo="31"  coef=".7993"/><qTerm  idx="-1"  idxOne="1"  idxTwo="32"  coef="-.1095"/><qTerm  idx="-1"  idxOne="1"  idxTwo="33"  coef="-.2575"/><qTerm  idx="-1"  idxOne="1"  idxTwo="35"  coef="-9.2e-2"/><qTerm  idx="-1"  idxOne="1"  idxTwo="36"  coef="-.817"/><qTerm  idx="-1"  idxOne="1"  idxTwo="37"  coef=".9651"/><qTerm  idx="-1"  idxOne="2"  idxTwo="2"  coef=".6289"/><qTerm  idx="-1"  idxOne="2"  idxTwo="4"  coef="-.1485"/><qTerm  idx="-1"  idxOne="2"  idxTwo="6"  coef="-.189"/><qTerm  idx="-1"  idxOne="2"  idxTwo="7"  coef="-.9728"/><qTerm  idx="-1"  idxOne="2"  idxTwo="8"  coef=".3321"/><qTerm  idx="-1"  idxOne="2"  idxTwo="11"  coef="-.9042"/><qTerm  idx="-1"  idxOne="2"  idxTwo="12"  coef="-.2686"/><qTerm  idx="-1"  idxOne="2"  idxTwo="15"  coef=".8488"/><qTerm  idx="-1"  idxOne="2"  idxTwo="18"  coef="-.4858"/><qTerm  idx="-1"  idxOne="2"  idxTwo="19"  coef=".1437"/><qTerm  idx="-1"  idxOne="2"  idxTwo="20"  coef=".3918"/><qTerm  idx="-1"  idxOne="2"  idxTwo="22"  coef=".6044"/><qTerm  idx="-1"  idxOne="2"  idxTwo="25"  coef="-.101"/><qTerm  idx="-1"  idxOne="2"  idxTwo="26"  coef="-9.32e-2"/><qTerm  idx="-1"  idxOne="2"  idxTwo="30"  coef="-.12"/><qTerm  idx="-1"  idxOne="2"  idxTwo="32"  coef=".6688"/><qTerm  idx="-1"  idxOne="2"  idxTwo="35"  coef=".1682"/><qTerm  idx="-1"  idxOne="2"  idxTwo="36"  coef=".8451"/><qTerm  idx="-1"  idxOne="2"  idxTwo="39"  coef="-.2707"/><qTerm  idx="-1"  idxOne="3"  idxTwo="3"  coef="-.1315"/><qTerm  idx="-1"  idxOne="3"  idxTwo="8"  coef="-.6041"/><qTerm  idx="-1"  idxOne="3"  idxTwo="13"  coef="-.458"/><qTerm  idx="-1"  idxOne="3"  idxTwo="16"  coef="-.187"/><qTerm  idx="-1"  idxOne="3"  idxTwo="18"  coef="-.7342"/><qTerm  idx="-1"  idxOne="3"  idxTwo="20"  coef="-.2844"/><qTerm  idx="-1"  idxOne="3"  idxTwo="21"  coef=".5475"/><qTerm  idx="-1"  idxOne="3"  idxTwo="23"  coef="-.2743"/><qTerm  idx="-1"  idxOne="3"  idxTwo="25"  coef=".2383"/><qTerm  idx="-1"  idxOne="3"  idxTwo="26"  coef="-.8164"/><qTerm  idx="-1"  idxOne="3"  idxTwo="27"  coef="-.367"/><qTerm  idx="-1"  idxOne="3"  idxTwo="31"  coef="-.6399"/><qTerm  idx="-1"  idxOne="3"  idxTwo="32"  coef="5.23e-2"/><qTerm  idx="-1"  idxOne="3"  idxTwo="34"  coef="-.5808"/><qTerm  idx="-1"  idxOne="3"  idxTwo="35"  coef="-5.31e-2"/><qTerm  idx="-1"  idxOne="4"  idxTwo="4"  coef=".6467"/><qTerm  idx="-1"  idxOne="4"  idxTwo="6"  coef="-.719"/><qTerm  idx="-1"  idxOne="4"  idxTwo="8"  coef=".1478"/><qTerm  idx="-1"  idxOne="4"  idxTwo="10"  coef="-.1032"/><qTerm  idx="-1"  idxOne="4"  idxTwo="12"  coef=".5907"/><qTerm  idx="-1"  idxOne="4"  idxTwo="13"  coef=".1366"/><qTerm  idx="-1"  idxOne="4"  idxTwo="17"  coef="-.2342"/><qTerm  idx="-1"  idxOne="4"  idxTwo="18"  coef=".8957"/><qTerm  idx="-1"  idxOne="4"  idxTwo="19"  coef=".8797"/><qTerm  idx="-1"  idxOne="4"  idxTwo="21"  coef=".36"/><qTerm  idx="-1"  idxOne="4"  idxTwo="22"  coef=".9592"/><qTerm  idx="-1"  idxOne="4"  idxTwo="23"  coef=".883"/><qTerm  idx="-1"  idxOne="4"  idxTwo="26"  coef=".9609"/><qTerm  idx="-1"  idxOne="4"  idxTwo="29"  coef="-9.41e-2"/><qTerm  idx="-1"  idxOne="4"  idxTwo="32"  coef=".3975"/><qTerm  idx="-1"  idxOne="4"  idxTwo="34"  coef="-.7856"/><qTerm  idx="-1"  idxOne="4"  idxTwo="35"  coef=".2575"/><qTerm  idx="-1"  idxOne="4"  idxTwo="37"  coef="-.4852"/><qTerm  idx="-1"  idxOne="4"  idxTwo="39"  coef="-.8943"/><qTerm  idx="-1"  idxOne="5"  idxTwo="5"  coef="-.7376"/><qTerm  idx="-1"  idxOne="5"  idxTwo="6"  coef="-.4866"/><qTerm  idx="-1"  idxOne="5"  idxTwo="9"  coef="4.5e-3"/><qTerm  idx="-1"  idxOne="5"  idxTwo="10"  coef="-.2489"/><qTerm  idx="-1"  idxOne="5"  idxTwo="12"  coef=".5375"/><qTerm  idx="-1"  idxOne="5"  idxTwo="13"  coef=".8573"/><qTerm  idx="-1"  idxOne="5"  idxTwo="16"  coef="-.5078"/><qTerm  idx="-1"  idxOne="5"  idxTwo="20"  coef="-7.69e-2"/><qTerm  idx="-1"  idxOne="5"  idxTwo="21"  coef="-.4662"/><qTerm  idx="-1"  idxOne="5"  idxTwo="22"  coef=".9053"/><qTerm  idx="-1"  idxOne="5"  idxTwo="23"  coef=".4227"/><qTerm  idx="-1"  idxOne="5"  idxTwo="24"  coef=".6067"/><qTerm  idx="-1"  idxOne="5"  idxTwo="28"  coef="-.59"/><qTerm  idx="-1"  idxOne="5"  idxTwo="31"  coef=".8208"/><qTerm  idx="-1"  idxOne="5"  idxTwo="33"  coef=".981"/><qTerm  idx="-1"  idxOne="5"  idxTwo="34"  coef="5.7e-2"/><qTerm  idx="-1"  idxOne="5"  idxTwo="35"  coef="-.9077"/><qTerm  idx="-1"  idxOne="5"  idxTwo="36"  coef=".5277"/><qTerm  idx="-1"  idxOne="5"  idxTwo="39"  coef="-.8388"/><qTerm  idx="-1"  idxOne="6"  idxTwo="8"  coef=".3125"/><qTerm  idx="-1"  idxOne="6"  idxTwo="11"  coef="-.1564"/><qTerm  idx="-1"  idxOne="6"  idxTwo="13"  coef=".6889"/><qTerm  idx="-1"  idxOne="6"  idxTwo="15"  coef="-.1729"/><qTerm  idx="-1"  idxOne="6"  idxTwo="18"  coef="-.2015"/><qTerm  idx="-1"  idxOne="6"  idxTwo="22"  coef=".8886"/><qTerm  idx="-1"  idxOne="6"  idxTwo="23"  coef="-6.04e-2"/><qTerm  idx="-1"  idxOne="6"  idxTwo="27"  coef="-.8734"/><qTerm  idx="-1"  idxOne="6"  idxTwo="28"  coef=".7749"/><qTerm  idx="-1"  idxOne="6"  idxTwo="33"  coef="-.6826"/><qTerm  idx="-1"  idxOne="6"  idxTwo="39"  coef="-.626"/><qTerm  idx="-1"  idxOne="7"  idxTwo="7"  coef="-.6294"/><qTerm  idx="-1"  idxOne="7"  idxTwo="10"  coef="-.5619"/><qTerm  idx="-1"  idxOne="7"  idxTwo="11"  coef=".5873"/><qTerm  idx="-1"  idxOne="7"  idxTwo="12"  coef="-.6854"/><qTerm  idx="-1"  idxOne="7"  idxTwo="13"  coef="-.5107"/><qTerm  idx="-1"  idxOne="7"  idxTwo="14"  coef="-.5118"/><qTerm  idx="-1"  idxOne="7"  idxTwo="15"  coef="-.1128"/><qTerm  idx="-1"  idxOne="7"  idxTwo="16"  coef="-.6433"/><qTerm  idx="-1"  idxOne="7"  idxTwo="17"  coef=".3749"/><qTerm  idx="-1"  idxOne="7"  idxTwo="18"  coef="-4.07e-2"/><qTerm  idx="-1"  idxOne="7"  idxTwo="20"  coef="-.5057"/><qTerm  idx="-1"  idxOne="7"  idxTwo="22"  coef="-.1218"/><qTerm  idx="-1"  idxOne="7"  idxTwo="24"  coef=".9947"/><qTerm  idx="-1"  idxOne="7"  idxTwo="25"  coef="-4.59e-2"/><qTerm  idx="-1"  idxOne="7"  idxTwo="29"  coef="-.3097"/><qTerm  idx="-1"  idxOne="7"  idxTwo="31"  coef="2.4e-3"/><qTerm  idx="-1"  idxOne="7"  idxTwo="33"  coef=".6144"/><qTerm  idx="-1"  idxOne="7"  idxTwo="37"  coef=".1497"/><qTerm  idx="-1"  idxOne="7"  idxTwo="38"  coef="-.4028"/><qTerm  idx="-1"  idxOne="7"  idxTwo="39"  coef="-4.79e-2"/><qTerm  idx="-1"  idxOne="8"  idxTwo="8"  coef="-.8832"/><qTerm  idx="-1"  idxOne="8"  idxTwo="9"  coef="-.6479"/><qTerm  idx="-1"  idxOne="8"  idxTwo="11"  coef=".5852"/><qTerm  idx="-1"  idxOne="8"  idxTwo="13"  coef="-.324"/><qTerm  idx="-1"  idxOne="8"  idxTwo="14"  coef=".2025"/><qTerm  idx="-1"  idxOne="8"  idxTwo="18"  coef="-.7738"/><qTerm  idx="-1"  idxOne="8"  idxTwo="19"  coef="-.8882"/><qTerm  idx="-1"  idxOne="8"  idxTwo="20"  coef=".7234"/><qTerm  idx="-1"  idxOne="8"  idxTwo="23"  coef=".9835"/><qTerm  idx="-1"  idxOne="8"  idxTwo="24"  coef="-.1561"/><qTerm  idx="-1"  idxOne="8"  idxTwo="28"  coef="-.7911"/><qTerm  idx="-1"  idxOne="8"  idxTwo="30"  coef="-.9623"/><qTerm  idx="-1"  idxOne="8"  idxTwo="32"  coef=".8674"/><qTerm  idx="-1"  idxOne="8"  idxTwo="33"  coef=".2896"/><qTerm  idx="-1"  idxOne="8"  idxTwo="36"  coef=".4318"/><qTerm  idx="-1"  idxOne="8"  idxTwo="39"  coef="-.2234"/><qTerm  idx="-1"  idxOne="9"  idxTwo="9"  coef="-.5767"/><qTerm  idx="-1"  idxOne="9"  idxTwo="12"  coef=".9638"/><qTerm  idx="-1"  idxOne="9"  idxTwo="14"  coef="-.8306"/><qTerm  idx="-1"  idxOne="9"  idxTwo="15"  coef="-.4428"/><qTerm  idx="-1"  idxOne="9"  idxTwo="16"  coef=".7551"/><qTerm  idx="-1"  idxOne="9"  idxTwo="19"  coef=".1343"/><qTerm  idx="-1"  idxOne="9"  idxTwo="20"  coef="-1.74e-2"/><qTerm  idx="-1"  idxOne="9"  idxTwo="21"  coef=".1535"/><qTerm  idx="-1"  idxOne="9"  idxTwo="23"  coef=".4655"/><qTerm  idx="-1"  idxOne="9"  idxTwo="24"  coef=".6368"/><qTerm  idx="-1"  idxOne="9"  idxTwo="27"  coef="-.3349"/><qTerm  idx="-1"  idxOne="9"  idxTwo="28"  coef="-.3947"/><qTerm  idx="-1"  idxOne="9"  idxTwo="32"  coef=".4457"/><qTerm  idx="-1"  idxOne="9"  idxTwo="34"  coef="-.7811"/><qTerm  idx="-1"  idxOne="9"  idxTwo="36"  coef="5.61e-2"/><qTerm  idx="-1"  idxOne="9"  idxTwo="37"  coef=".9949"/><qTerm  idx="-1"  idxOne="9"  idxTwo="38"  coef="1.75e-2"/><qTerm  idx="-1"  idxOne="9"  idxTwo="39"  coef=".3907"/><qTerm  idx="-1"  idxOne="10"  idxTwo="10"  coef=".8208"/><qTerm  idx="-1"  idxOne="10"  idxTwo="12"  coef="-.4831"/><qTerm  idx="-1"  idxOne="10"  idxTwo="18"  coef="9.98e-2"/><qTerm  idx="-1"  idxOne="10"  idxTwo="21"  coef=".9517"/><qTerm  idx="-1"  idxOne="10"  idxTwo="23"  coef=".6618"/><qTerm  idx="-1"  idxOne="10"  idxTwo="26"  coef="-.1377"/><qTerm  idx="-1"  idxOne="10"  idxTwo="29"  coef="-5.34e-2"/><qTerm  idx="-1"  idxOne="10"  idxTwo="31"  coef="-.1808"/><qTerm  idx="-1"  idxOne="10"  idxTwo="33"  coef=".4959"/><qTerm  idx="-1"  idxOne="10"  idxTwo="34"  coef=".8739"/><qTerm  idx="-1"  idxOne="10"  idxTwo="35"  coef=".4761"/><qTerm  idx="-1"  idxOne="10"  idxTwo="36"  coef="-.76"/><qTerm  idx="-1"  idxOne="10"  idxTwo="37"  coef=".1344"/><qTerm  idx="-1"  idxOne="10"  idxTwo="39"  coef=".4302"/><qTerm  idx="-1"  idxOne="11"  idxTwo="11"  coef=".2268"/><qTerm  idx="-1"  idxOne="11"  idxTwo="12"  coef="-.8581"/><qTerm  idx="-1"  idxOne="11"  idxTwo="13"  coef="-.9698"/><qTerm  idx="-1"  idxOne="11"  idxTwo="21"  coef="-.4175"/><qTerm  idx="-1"  idxOne="11"  idxTwo="22"  coef="-.6777"/><qTerm  idx="-1"  idxOne="11"  idxTwo="25"  coef="-.2106"/><qTerm  idx="-1"  idxOne="11"  idxTwo="27"  coef="-.8518"/><qTerm  idx="-1"  idxOne="11"  idxTwo="28"  coef="-.2044"/><qTerm  idx="-1"  idxOne="11"  idxTwo="31"  coef="-.2839"/><qTerm  idx="-1"  idxOne="11"  idxTwo="34"  coef="-.9479"/><qTerm  idx="-1"  idxOne="11"  idxTwo="37"  coef=".7982"/><qTerm  idx="-1"  idxOne="11"  idxTwo="38"  coef="-.6029"/><qTerm  idx="-1"  idxOne="11"  idxTwo="39"  coef=".4451"/><qTerm  idx="-1"  idxOne="12"  idxTwo="13"  coef="-.3462"/><qTerm  idx="-1"  idxOne="12"  idxTwo="16"  coef="-.4838"/><qTerm  idx="-1"  idxOne="12"  idxTwo="19"  coef="-.1554"/><qTerm  idx="-1"  idxOne="12"  idxTwo="21"  coef=".6486"/><qTerm  idx="-1"  idxOne="12"  idxTwo="22"  coef="-.2053"/><qTerm  idx="-1"  idxOne="12"  idxTwo="26"  coef="-.2599"/><qTerm  idx="-1"  idxOne="12"  idxTwo="29"  coef="-.5853"/><qTerm  idx="-1"  idxOne="12"  idxTwo="30"  coef="-.3857"/><qTerm  idx="-1"  idxOne="12"  idxTwo="31"  coef="-.526"/><qTerm  idx="-1"  idxOne="12"  idxTwo="35"  coef=".5559"/><qTerm  idx="-1"  idxOne="12"  idxTwo="36"  coef="-.1299"/><qTerm  idx="-1"  idxOne="12"  idxTwo="39"  coef=".5735"/><qTerm  idx="-1"  idxOne="13"  idxTwo="14"  coef="-.3121"/><qTerm  idx="-1"  idxOne="13"  idxTwo="15"  coef="-.2527"/><qTerm  idx="-1"  idxOne="13"  idxTwo="16"  coef=".6901"/><qTerm  idx="-1"  idxOne="13"  idxTwo="18"  coef="-.224"/><qTerm  idx="-1"  idxOne="13"  idxTwo="22"  coef="-.504"/><qTerm  idx="-1"  idxOne="13"  idxTwo="23"  coef="-.3558"/><qTerm  idx="-1"  idxOne="13"  idxTwo="26"  coef=".692"/><qTerm  idx="-1"  idxOne="13"  idxTwo="27"  coef=".2166"/><qTerm  idx="-1"  idxOne="13"  idxTwo="28"  coef="-.3207"/><qTerm  idx="-1"  idxOne="13"  idxTwo="29"  coef="-.7537"/><qTerm  idx="-1"  idxOne="13"  idxTwo="30"  coef=".3029"/><qTerm  idx="-1"  idxOne="13"  idxTwo="33"  coef="-.9003"/><qTerm  idx="-1"  idxOne="13"  idxTwo="34"  coef="-.5601"/><qTerm  idx="-1"  idxOne="13"  idxTwo="36"  coef=".1253"/><qTerm  idx="-1"  idxOne="13"  idxTwo="38"  coef=".3511"/><qTerm  idx="-1"  idxOne="14"  idxTwo="14"  coef=".4034"/><qTerm  idx="-1"  idxOne="14"  idxTwo="16"  coef=".5915"/><qTerm  idx="-1"  idxOne="14"  idxTwo="18"  coef="-.9321"/><qTerm  idx="-1"  idxOne="14"  idxTwo="20"  coef="-.7018"/><qTerm  idx="-1"  idxOne="14"  idxTwo="23"  coef=".9676"/><qTerm  idx="-1"  idxOne="14"  idxTwo="24"  coef="7.7e-3"/><qTerm  idx="-1"  idxOne="14"  idxTwo="26"  coef=".6789"/><qTerm  idx="-1"  idxOne="14"  idxTwo="28"  coef="-.9712"/><qTerm  idx="-1"  idxOne="14"  idxTwo="29"  coef="-.1112"/><qTerm  idx="-1"  idxOne="14"  idxTwo="31"  coef="-.7022"/><qTerm  idx="-1"  idxOne="14"  idxTwo="33"  coef=".2821"/><qTerm  idx="-1"  idxOne="14"  idxTwo="34"  coef="-.4521"/><qTerm  idx="-1"  idxOne="14"  idxTwo="36"  coef=".3044"/><qTerm  idx="-1"  idxOne="14"  idxTwo="37"  coef=".8173"/><qTerm  idx="-1"  idxOne="14"  idxTwo="38"  coef="-.6102"/><qTerm  idx="-1"  idxOne="14"  idxTwo="39"  coef=".4353"/><qTerm  idx="-1"  idxOne="15"  idxTwo="17"  coef=".8494"/><qTerm  idx="-1"  idxOne="15"  idxTwo="18"  coef="-1.41e-2"/><qTerm  idx="-1"  idxOne="15"  idxTwo="19"  coef="-.2351"/><qTerm  idx="-1"  idxOne="15"  idxTwo="20"  coef="-.5149"/><qTerm  idx="-1"  idxOne="15"  idxTwo="24"  coef=".4171"/><qTerm  idx="-1"  idxOne="15"  idxTwo="27"  coef="-.4851"/><qTerm  idx="-1"  idxOne="15"  idxTwo="29"  coef=".2186"/><qTerm  idx="-1"  idxOne="15"  idxTwo="31"  coef="-.5165"/><qTerm  idx="-1"  idxOne="15"  idxTwo="35"  coef="-4.09e-2"/><qTerm  idx="-1"  idxOne="15"  idxTwo="37"  coef="-6.84e-2"/><qTerm  idx="-1"  idxOne="15"  idxTwo="38"  coef=".8067"/><qTerm  idx="-1"  idxOne="15"  idxTwo="39"  coef="-.741"/><qTerm  idx="-1"  idxOne="16"  idxTwo="18"  coef=".244"/><qTerm  idx="-1"  idxOne="16"  idxTwo="21"  coef=".4082"/><qTerm  idx="-1"  idxOne="16"  idxTwo="22"  coef="-.8271"/><qTerm  idx="-1"  idxOne="16"  idxTwo="23"  coef="2.59e-2"/><qTerm  idx="-1"  idxOne="16"  idxTwo="25"  coef=".5978"/><qTerm  idx="-1"  idxOne="16"  idxTwo="26"  coef=".6645"/><qTerm  idx="-1"  idxOne="16"  idxTwo="29"  coef="-.8019"/><qTerm  idx="-1"  idxOne="16"  idxTwo="30"  coef=".4188"/><qTerm  idx="-1"  idxOne="16"  idxTwo="35"  coef="-.9602"/><qTerm  idx="-1"  idxOne="17"  idxTwo="18"  coef=".2757"/><qTerm  idx="-1"  idxOne="17"  idxTwo="24"  coef="-.9884"/><qTerm  idx="-1"  idxOne="17"  idxTwo="27"  coef=".5653"/><qTerm  idx="-1"  idxOne="17"  idxTwo="28"  coef=".184"/><qTerm  idx="-1"  idxOne="17"  idxTwo="29"  coef="-.2369"/><qTerm  idx="-1"  idxOne="17"  idxTwo="30"  coef="-.8693"/><qTerm  idx="-1"  idxOne="17"  idxTwo="32"  coef="-.8708"/><qTerm  idx="-1"  idxOne="17"  idxTwo="34"  coef="-.1068"/><qTerm  idx="-1"  idxOne="17"  idxTwo="35"  coef=".324"/><qTerm  idx="-1"  idxOne="17"  idxTwo="39"  coef=".2638"/><qTerm  idx="-1"  idxOne="18"  idxTwo="20"  coef=".6292"/><qTerm  idx="-1"  idxOne="18"  idxTwo="21"  coef=".1876"/><qTerm  idx="-1"  idxOne="18"  idxTwo="22"  coef=".6185"/><qTerm  idx="-1"  idxOne="18"  idxTwo="25"  coef="7.57e-2"/><qTerm  idx="-1"  idxOne="18"  idxTwo="26"  coef="-.6704"/><qTerm  idx="-1"  idxOne="18"  idxTwo="28"  coef=".9749"/><qTerm  idx="-1"  idxOne="18"  idxTwo="32"  coef="-.3579"/><qTerm  idx="-1"  idxOne="18"  idxTwo="35"  coef=".362"/><qTerm  idx="-1"  idxOne="18"  idxTwo="36"  coef=".282"/><qTerm  idx="-1"  idxOne="18"  idxTwo="37"  coef="-.3487"/><qTerm  idx="-1"  idxOne="18"  idxTwo="38"  coef=".5062"/><qTerm  idx="-1"  idxOne="18"  idxTwo="39"  coef=".7708"/><qTerm  idx="-1"  idxOne="19"  idxTwo="19"  coef="-.1884"/><qTerm  idx="-1"  idxOne="19"  idxTwo="20"  coef="-.1407"/><qTerm  idx="-1"  idxOne="19"  idxTwo="22"  coef="-.8917"/><qTerm  idx="-1"  idxOne="19"  idxTwo="24"  coef=".5454"/><qTerm  idx="-1"  idxOne="19"  idxTwo="26"  coef=".6439"/><qTerm  idx="-1"  idxOne="19"  idxTwo="27"  coef=".761"/><qTerm  idx="-1"  idxOne="19"  idxTwo="31"  coef="-.4597"/><qTerm  idx="-1"  idxOne="19"  idxTwo="34"  coef="-.3876"/><qTerm  idx="-1"  idxOne="19"  idxTwo="36"  coef=".5233"/><qTerm  idx="-1"  idxOne="19"  idxTwo="39"  coef=".4884"/><qTerm  idx="-1"  idxOne="20"  idxTwo="20"  coef="-.7583"/><qTerm  idx="-1"  idxOne="20"  idxTwo="21"  coef="-.6211"/><qTerm  idx="-1"  idxOne="20"  idxTwo="23"  coef=".1005"/><qTerm  idx="-1"  idxOne="20"  idxTwo="31"  coef=".4067"/><qTerm  idx="-1"  idxOne="20"  idxTwo="33"  coef=".8099"/><qTerm  idx="-1"  idxOne="20"  idxTwo="34"  coef=".5285"/><qTerm  idx="-1"  idxOne="20"  idxTwo="35"  coef=".2924"/><qTerm  idx="-1"  idxOne="20"  idxTwo="36"  coef=".4647"/><qTerm  idx="-1"  idxOne="20"  idxTwo="39"  coef=".2275"/><qTerm  idx="-1"  idxOne="21"  idxTwo="22"  coef="-.1062"/><qTerm  idx="-1"  idxOne="21"  idxTwo="24"  coef=".2242"/><qTerm  idx="-1"  idxOne="21"  idxTwo="25"  coef="-.261"/><qTerm  idx="-1"  idxOne="21"  idxTwo="27"  coef=".8666"/><qTerm  idx="-1"  idxOne="21"  idxTwo="28"  coef="-.2037"/><qTerm  idx="-1"  idxOne="21"  idxTwo="31"  coef=".1854"/><qTerm  idx="-1"  idxOne="21"  idxTwo="33"  coef="-.5562"/><qTerm  idx="-1"  idxOne="21"  idxTwo="35"  coef="-.8889"/><qTerm  idx="-1"  idxOne="21"  idxTwo="36"  coef="-.4716"/><qTerm  idx="-1"  idxOne="22"  idxTwo="22"  coef="-.938"/><qTerm  idx="-1"  idxOne="22"  idxTwo="23"  coef=".5234"/><qTerm  idx="-1"  idxOne="22"  idxTwo="25"  coef=".1153"/><qTerm  idx="-1"  idxOne="22"  idxTwo="27"  coef="-.7001"/><qTerm  idx="-1"  idxOne="22"  idxTwo="28"  coef=".2143"/><qTerm  idx="-1"  idxOne="22"  idxTwo="31"  coef="-.4193"/><qTerm  idx="-1"  idxOne="22"  idxTwo="33"  coef=".7964"/><qTerm  idx="-1"  idxOne="22"  idxTwo="34"  coef="-.3125"/><qTerm  idx="-1"  idxOne="22"  idxTwo="37"  coef="-.9895"/><qTerm  idx="-1"  idxOne="22"  idxTwo="38"  coef=".9544"/><qTerm  idx="-1"  idxOne="22"  idxTwo="39"  coef="-.9451"/><qTerm  idx="-1"  idxOne="23"  idxTwo="23"  coef=".188"/><qTerm  idx="-1"  idxOne="23"  idxTwo="24"  coef=".625"/><qTerm  idx="-1"  idxOne="23"  idxTwo="26"  coef=".6788"/><qTerm  idx="-1"  idxOne="23"  idxTwo="29"  coef="-.5179"/><qTerm  idx="-1"  idxOne="23"  idxTwo="34"  coef=".2132"/><qTerm  idx="-1"  idxOne="23"  idxTwo="37"  coef="-.6344"/><qTerm  idx="-1"  idxOne="23"  idxTwo="39"  coef="8.13e-2"/><qTerm  idx="-1"  idxOne="24"  idxTwo="24"  coef="-.7783"/><qTerm  idx="-1"  idxOne="24"  idxTwo="29"  coef="-.5175"/><qTerm  idx="-1"  idxOne="24"  idxTwo="31"  coef=".1427"/><qTerm  idx="-1"  idxOne="24"  idxTwo="32"  coef=".2631"/><qTerm  idx="-1"  idxOne="24"  idxTwo="33"  coef="-.5929"/><qTerm  idx="-1"  idxOne="24"  idxTwo="34"  coef=".7394"/><qTerm  idx="-1"  idxOne="24"  idxTwo="35"  coef="-.5374"/><qTerm  idx="-1"  idxOne="24"  idxTwo="36"  coef="-.1051"/><qTerm  idx="-1"  idxOne="24"  idxTwo="37"  coef=".2477"/><qTerm  idx="-1"  idxOne="24"  idxTwo="38"  coef="-7.6e-3"/><qTerm  idx="-1"  idxOne="24"  idxTwo="39"  coef=".6243"/><qTerm  idx="-1"  idxOne="25"  idxTwo="25"  coef=".7406"/><qTerm  idx="-1"  idxOne="25"  idxTwo="26"  coef="-.1626"/><qTerm  idx="-1"  idxOne="25"  idxTwo="27"  coef=".8408"/><qTerm  idx="-1"  idxOne="25"  idxTwo="28"  coef="-.9828"/><qTerm  idx="-1"  idxOne="25"  idxTwo="32"  coef="3.42e-2"/><qTerm  idx="-1"  idxOne="25"  idxTwo="34"  coef="3.91e-2"/><qTerm  idx="-1"  idxOne="25"  idxTwo="35"  coef="-.6591"/><qTerm  idx="-1"  idxOne="25"  idxTwo="37"  coef="-.3588"/><qTerm  idx="-1"  idxOne="25"  idxTwo="39"  coef="-.8871"/><qTerm  idx="-1"  idxOne="26"  idxTwo="26"  coef=".979"/><qTerm  idx="-1"  idxOne="26"  idxTwo="27"  coef=".1109"/><qTerm  idx="-1"  idxOne="26"  idxTwo="28"  coef=".2196"/><qTerm  idx="-1"  idxOne="26"  idxTwo="30"  coef="-5.39e-2"/><qTerm  idx="-1"  idxOne="26"  idxTwo="31"  coef="-.6299"/><qTerm  idx="-1"  idxOne="26"  idxTwo="32"  coef=".9995"/><qTerm  idx="-1"  idxOne="26"  idxTwo="34"  coef=".3626"/><qTerm  idx="-1"  idxOne="26"  idxTwo="35"  coef=".7031"/><qTerm  idx="-1"  idxOne="26"  idxTwo="38"  coef=".4754"/><qTerm  idx="-1"  idxOne="27"  idxTwo="28"  coef="-.5439"/><qTerm  idx="-1"  idxOne="27"  idxTwo="31"  coef=".4409"/><qTerm  idx="-1"  idxOne="27"  idxTwo="32"  coef=".2193"/><qTerm  idx="-1"  idxOne="27"  idxTwo="33"  coef=".8762"/><qTerm  idx="-1"  idxOne="27"  idxTwo="36"  coef=".6892"/><qTerm  idx="-1"  idxOne="27"  idxTwo="37"  coef=".2511"/><qTerm  idx="-1"  idxOne="27"  idxTwo="39"  coef="-.6111"/><qTerm  idx="-1"  idxOne="28"  idxTwo="28"  coef="-.5636"/><qTerm  idx="-1"  idxOne="28"  idxTwo="30"  coef="-.37"/><qTerm  idx="-1"  idxOne="28"  idxTwo="33"  coef="-.5817"/><qTerm  idx="-1"  idxOne="28"  idxTwo="36"  coef=".3188"/><qTerm  idx="-1"  idxOne="28"  idxTwo="38"  coef=".8854"/><qTerm  idx="-1"  idxOne="29"  idxTwo="29"  coef="5.76e-2"/><qTerm  idx="-1"  idxOne="29"  idxTwo="31"  coef=".5568"/><qTerm  idx="-1"  idxOne="29"  idxTwo="34"  coef="-.6497"/><qTerm  idx="-1"  idxOne="29"  idxTwo="36"  coef=".233"/><qTerm  idx="-1"  idxOne="29"  idxTwo="37"  coef=".245"/><qTerm  idx="-1"  idxOne="29"  idxTwo="39"  coef="-.4428"/><qTerm  idx="-1"  idxOne="30"  idxTwo="30"  coef="-.6108"/><qTerm  idx="-1"  idxOne="30"  idxTwo="32"  coef=".1558"/><qTerm  idx="-1"  idxOne="30"  idxTwo="34"  coef=".1136"/><qTerm  idx="-1"  idxOne="30"  idxTwo="36"  coef="3.41e-2"/><qTerm  idx="-1"  idxOne="30"  idxTwo="38"  coef=".1486"/><qTerm  idx="-1"  idxOne="31"  idxTwo="32"  coef=".3846"/><qTerm  idx="-1"  idxOne="31"  idxTwo="34"  coef=".1753"/><qTerm  idx="-1"  idxOne="31"  idxTwo="36"  coef="-.1409"/><qTerm  idx="-1"  idxOne="31"  idxTwo="37"  coef=".7224"/><qTerm  idx="-1"  idxOne="31"  idxTwo="38"  coef=".9928"/><qTerm  idx="-1"  idxOne="31"  idxTwo="39"  coef="-.4614"/><qTerm  idx="-1"  idxOne="32"  idxTwo="33"  coef=".2362"/><qTerm  idx="-1"  idxOne="32"  idxTwo="34"  coef="-.7496"/><qTerm  idx="-1"  idxOne="32"  idxTwo="36"  coef="-.4323"/><qTerm  idx="-1"  idxOne="32"  idxTwo="37"  coef="-.4002"/><qTerm  idx="-1"  idxOne="32"  idxTwo="38"  coef=".4517"/><qTerm  idx="-1"  idxOne="32"  idxTwo="39"  coef="-.5902"/><qTerm  idx="-1"  idxOne="33"  idxTwo="33"  coef="-.765"/><qTerm  idx="-1"  idxOne="33"  idxTwo="35"  coef=".3775"/><qTerm  idx="-1"  idxOne="33"  idxTwo="36"  coef=".4818"/><qTerm  idx="-1"  idxOne="33"  idxTwo="37"  coef="6.14e-2"/><qTerm  idx="-1"  idxOne="33"  idxTwo="39"  coef="-.8757"/><qTerm  idx="-1"  idxOne="34"  idxTwo="34"  coef="-.9753"/><qTerm  idx="-1"  idxOne="34"  idxTwo="36"  coef="-.5922"/><qTerm  idx="-1"  idxOne="34"  idxTwo="38"  coef=".2362"/><qTerm  idx="-1"  idxOne="35"  idxTwo="35"  coef="-.4359"/><qTerm  idx="-1"  idxOne="35"  idxTwo="39"  coef="-7.14e-2"/><qTerm  idx="-1"  idxOne="36"  idxTwo="36"  coef="-.4715"/><qTerm  idx="-1"  idxOne="36"  idxTwo="39"  coef="-.918"/><qTerm  idx="-1"  idxOne="37"  idxTwo="37"  coef="-.7008"/><qTerm  idx="-1"  idxOne="38"  idxTwo="39"  coef="-.5879"/><qTerm  idx="-1"  idxOne="39"  idxTwo="39"  coef="-.3202"/></quadraticCoefficients></instanceData></osil>
